Normalized Data/p02_1_normalized_split0.vrp
NAME:p02_1_NORMALIZED_split
BEST_KNOWN: 0
COMMENT: 0
DIMENSION: 311
CAPACITY: 100
EDGE_WEIGHT_FORMAT: FUNCTION
EDGE_WEIGHT_TYPE: EXACT_2D
NODE_COORD_SECTION
1 0.00000 0.00000
2 13 31
3 13 31
4 13 31
5 35 -44
6 46 -49
7 46 -49
8 46 -49
9 46 -49
10 46 -49
11 -37 34
12 -37 34
13 -37 34
14 -37 34
15 -37 34
16 8 -47
17 8 -47
18 8 -47
19 8 -47
20 8 -47
21 8 -47
22 8 -47
23 14 25
24 14 25
25 14 25
26 14 25
27 14 25
28 -2 48
29 -2 48
30 -2 48
31 16 17
32 16 17
33 16 17
34 16 17
35 -6 -47
36 -6 -47
37 -20 -18
38 -20 -18
39 -20 -18
40 -20 -18
41 -20 -18
42 -22 31
43 -22 31
44 -22 31
45 -22 31
46 -22 31
47 -22 31
48 -22 31
49 41 15
50 41 15
51 41 15
52 -32 40
53 -32 40
54 -32 40
55 -32 40
56 -32 40
57 -32 40
58 -21 39
59 -21 39
60 -21 39
61 -21 39
62 -21 39
63 -21 39
64 7 12
65 7 12
66 7 12
67 45 -35
68 45 -35
69 45 -35
70 45 -35
71 45 -35
72 45 -35
73 -45 -19
74 -45 -19
75 -45 -19
76 -45 -19
77 -45 -19
78 -1 2
79 -1 2
80 -1 2
81 -1 2
82 -1 2
83 -2 46
84 -2 46
85 -2 46
86 43 -41
87 43 -41
88 43 -41
89 43 -41
90 13 28
91 13 28
92 13 28
93 13 28
94 13 28
95 33 -16
96 33 -16
97 33 -16
98 2 50
99 2 50
100 2 50
101 2 50
102 2 50
103 2 50
104 29 -31
105 32 49
106 32 49
107 -50 13
108 -50 13
109 -50 13
110 -50 13
111 -50 13
112 -35 -25
113 -35 -25
114 -35 -25
115 -35 -25
116 -35 -25
117 -1 -50
118 -1 -50
119 -1 -50
120 -1 -50
121 -1 -50
122 -1 -50
123 8 -46
124 8 -46
125 8 -46
126 8 -46
127 8 -46
128 8 -46
129 -36 -21
130 -36 -21
131 -36 -21
132 -26 -33
133 -26 -33
134 -26 -33
135 -26 -33
136 -26 -33
137 -1 22
138 -1 22
139 -1 22
140 22 4
141 22 4
142 22 4
143 22 4
144 22 4
145 22 4
146 -21 17
147 -21 17
148 -21 17
149 -21 17
150 -13 43
151 -13 43
152 -13 43
153 1 39
154 1 39
155 1 39
156 -20 18
157 -20 18
158 -20 18
159 27 -45
160 27 -45
161 27 -45
162 27 -45
163 27 -45
164 27 -45
165 -4 30
166 -4 30
167 -21 -14
168 -21 -14
169 -21 -14
170 -21 -14
171 -21 -14
172 -46 -13
173 -46 -13
174 -46 -13
175 -46 -13
176 -46 -13
177 -47 34
178 -47 34
179 -42 -38
180 -42 -38
181 -42 -38
182 -14 -48
183 -14 -48
184 -14 -48
185 -4 -31
186 -4 -31
187 -4 -31
188 10 33
189 10 33
190 10 33
191 19 9
192 19 9
193 -43 -29
194 -43 -29
195 -43 -29
196 -43 -29
197 -43 -29
198 -37 -16
199 -37 -16
200 -37 -16
201 -37 -16
202 -37 -16
203 -37 -16
204 -1 35
205 -1 35
206 -1 35
207 27 19
208 27 19
209 27 19
210 27 19
211 27 19
212 -39 -17
213 -39 -17
214 -39 -17
215 -39 -17
216 -39 -17
217 -10 26
218 -10 26
219 -10 26
220 -10 26
221 -10 26
222 -10 26
223 -8 -2
224 -8 -2
225 -8 -2
226 -8 -2
227 -8 -2
228 -8 -2
229 -12 -24
230 -12 -24
231 -12 -24
232 -1 -44
233 -1 -44
234 -1 -44
235 -17 13
236 -17 13
237 -17 13
238 -17 13
239 -17 13
240 47 -30
241 47 -30
242 -4 16
243 -4 16
244 -4 16
245 -4 16
246 -4 16
247 13 36
248 13 36
249 13 36
250 13 36
251 13 36
252 13 30
253 13 30
254 13 30
255 13 30
256 13 30
257 13 30
258 13 30
259 -27 -27
260 -27 -27
261 -27 -27
262 -27 -27
263 -27 -27
264 -27 -27
265 -27 -27
266 45 -46
267 45 -46
268 45 -46
269 45 -46
270 45 -46
271 45 -46
272 23 15
273 23 15
274 23 15
275 23 15
276 -1 -49
277 -1 -49
278 -1 -49
279 17 18
280 43 -40
281 43 -40
282 14 32
283 14 32
284 14 32
285 14 32
286 8 35
287 8 35
288 -10 -28
289 -10 -28
290 -10 -28
291 -10 -28
292 -10 -28
293 43 34
294 43 34
295 43 34
296 43 34
297 43 34
298 -12 -23
299 -12 -23
300 -12 -23
301 -12 -23
302 -12 -23
303 -8 17
304 -8 17
305 -8 17
306 -8 17
307 25 -43
308 25 -43
309 25 -43
310 41 23
311 41 23
DEMAND_SECTION
1 0
2 10
3 5
4 1
5 20
6 20
7 5
8 1
9 1
10 1
11 10
12 1
13 1
14 1
15 1
16 20
17 10
18 5
19 1
20 1
21 1
22 1
23 20
24 10
25 1
26 1
27 1
28 10
29 5
30 1
31 10
32 5
33 1
34 1
35 20
36 5
37 20
38 10
39 1
40 1
41 1
42 20
43 10
44 5
45 1
46 1
47 1
48 1
49 20
50 10
51 5
52 20
53 20
54 5
55 1
56 1
57 1
58 10
59 5
60 1
61 1
62 1
63 1
64 20
65 20
66 5
67 20
68 10
69 5
70 1
71 1
72 1
73 20
74 20
75 5
76 1
77 1
78 20
79 20
80 5
81 1
82 1
83 20
84 20
85 5
86 20
87 20
88 1
89 1
90 20
91 5
92 1
93 1
94 1
95 20
96 20
97 5
98 20
99 10
100 5
101 1
102 1
103 1
104 20
105 10
106 5
107 10
108 5
109 1
110 1
111 1
112 20
113 10
114 5
115 1
116 1
117 20
118 5
119 1
120 1
121 1
122 1
123 20
124 10
125 5
126 1
127 1
128 1
129 20
130 20
131 10
132 20
133 10
134 1
135 1
136 1
137 20
138 20
139 5
140 10
141 5
142 1
143 1
144 1
145 1
146 20
147 20
148 5
149 1
150 20
151 20
152 5
153 20
154 10
155 5
156 20
157 20
158 10
159 20
160 10
161 5
162 1
163 1
164 1
165 20
166 10
167 10
168 1
169 1
170 1
171 1
172 20
173 10
174 5
175 1
176 1
177 20
178 5
179 20
180 1
181 1
182 20
183 5
184 1
185 10
186 1
187 1
188 20
189 1
190 1
191 10
192 5
193 20
194 5
195 1
196 1
197 1
198 20
199 10
200 1
201 1
202 1
203 1
204 20
205 20
206 5
207 20
208 20
209 5
210 1
211 1
212 10
213 5
214 1
215 1
216 1
217 20
218 10
219 5
220 1
221 1
222 1
223 20
224 10
225 5
226 1
227 1
228 1
229 20
230 1
231 1
232 20
233 20
234 5
235 20
236 10
237 1
238 1
239 1
240 10
241 5
242 20
243 10
244 1
245 1
246 1
247 20
248 20
249 5
250 1
251 1
252 20
253 20
254 5
255 1
256 1
257 1
258 1
259 20
260 20
261 5
262 1
263 1
264 1
265 1
266 20
267 5
268 1
269 1
270 1
271 1
272 20
273 5
274 1
275 1
276 20
277 10
278 5
279 20
280 20
281 20
282 20
283 20
284 5
285 1
286 20
287 5
288 10
289 1
290 1
291 1
292 1
293 20
294 10
295 5
296 1
297 1
298 20
299 10
300 1
301 1
302 1
303 20
304 20
305 1
306 1
307 20
308 1
309 1
310 20
311 10
DEPOT_SECTION
1
-1
EOF