Normalized Data/p02_1_normalized_split0.sol
310 -2 1 3 105 104 296 295 292 293 294 309 310 -6 8 5 7 9 269 268 270 265 267 266 87 88 86 85 -30 32 31 33 278 26 25 24 23 22 90 92 89 93 91 -38 37 39 36 40 260 258 259 261 263 264 262 166 168 169 170 167 -44 47 41 42 57 62 58 59 61 60 150 149 151 221 220 219 -64 65 63 78 79 81 80 77 -75 74 76 72 73 196 193 192 194 195 179 180 178 -83 82 84 28 29 27 99 97 102 98 100 101 -95 94 96 50 49 48 139 143 142 140 144 141 -103 4 161 162 163 160 158 159 307 308 306 -107 110 106 108 109 172 175 174 173 171 212 215 214 211 213 197 199 201 202 200 -114 112 115 113 111 128 130 129 198 225 226 -126 124 127 122 125 123 21 16 18 15 19 20 17 231 186 -132 133 134 131 135 181 182 183 35 34 289 288 287 291 290 -137 136 165 164 216 217 -138 153 154 152 205 204 203 244 242 -148 147 146 145 155 157 156 -176 177 12 11 10 14 13 53 56 52 55 54 51 45 46 43 218 -184 185 120 117 116 118 121 119 276 277 275 232 233 -188 187 189 247 246 250 249 248 285 286 -191 190 273 272 271 274 209 208 206 210 207 -227 224 222 223 297 300 301 298 299 229 230 228 -236 237 235 238 234 302 304 305 303 243 241 245 -240 239 69 70 67 68 71 66 279 280 -251 256 252 254 253 257 255 282 283 284 281 0 





OBJ=
2326.283
BEST_KNOWN=
0.000